1587610
25,36,65,76,8,4,0,34,97,100,81,44,33,51,89,23,108,9,10,88,90,96,46,70,98,86,92,95,61,18,72,75,49,17,41,107,77,32,105,11,35,27,7,38,13,69,68,26,85,56,74,30,21,63,22,66,78,2,82,80,1,50,83,58,45,93,106,15,28,24,62,19,43,3,14,52,104,6,87,64,59,54,39,67,12,20,79,47,73,91,102,60,84,42,31,94,5,29,55,16,99,101,53,57,103,48,40,37,71,25